(set-logic QF_LIA)
(set-info :ran/ran3.smt2)
(set-info :smt-lib-version 2.0)
(declare-fun x0 () Int)
(declare-fun x1 () Int)
(declare-fun x2 () Int)
(define-fun ie0 () Bool (<= (+ (* (- 88) x0) (* (- 80) x1) (* 98 x2) ) 42))
(define-fun ie1 () Bool (<= (+ (* (- 61) x2) (* (- 22) x0) (* 38 x2) (* 24 x2) ) 19))
(define-fun ie2 () Bool (<= (+ (* (- 30) x2) (* (- 42) x2) (* 32 x0) ) (- 4)))
(assert ie0)
(assert ie1)
(assert ie2)
(check-sat)
(exit)
